\ENCODING=ISO-8859-1
\Problem name: ilog.cplex

Minimize
 obj1: 90683 x1 + 108506 x2 + 98799 x3 + 101735 x4 + 109753 x5 + 101157 x6
       + 106327 x7 + 103506 x8 + 101816 x9 + 96603 x10 + 104801 x11 + 97734 x12
       + 106035 x13 + 103056 x14 + 92144 x15 + 101280 x16 + 105754 x17
       + 100287 x18 + 93581 x19 + 104355 x20 + 90563 x21 + 91843 x22
       + 92017 x23 + 95787 x24 + 100283 x25 + 93258 x26 + 95788 x27 + 91232 x28
       + 103724 x29 + 108266 x30 + 90613 x31 + 90732 x32 + 94438 x33
       + 101443 x34 + 97277 x35 + 106247 x36 + 90719 x37 + 92762 x38
       + 96925 x39 + 104628 x40 + 107744 x41 + 97205 x42 + 91795 x43
       + 107041 x44 + 106035 x45 + 90902 x46 + 100792 x47 + 91905 x48
       + 92276 x49 + 104168 x50 + 101371 x51 + 93262 x52 + 109235 x53
       + 109511 x54 + 107744 x55 + 103684 x56 + 99354 x57 + 94550 x58
       + 104050 x59 + 96471 x60 + 105876 x61 + 98922 x62 + 91424 x63
       + 106366 x64 + 98806 x65 + 109657 x66 + 90793 x67 + 93774 x68
       + 101892 x69 + 100261 x70 + 103924 x71 + 101874 x72 + 103542 x73
       + 108208 x74 + 106464 x75 + 95801 x76 + 103055 x77 + 96489 x78
       + 107262 x79 + 100691 x80 + 92421 x81 + 105450 x82 + 92816 x83
       + 103164 x84 + 106273 x85 + 109303 x86 + 100839 x87 + 94339 x88
       + 95594 x89 + 95459 x90 + 92795 x91 + 91503 x92 + 94358 x93 + 104221 x94
       + 101605 x95 + 100295 x96 + 92569 x97 + 101417 x98 + 97843 x99
       + 109586 x100 + 107194 x101 + 102249 x102 + 90246 x103 + 105772 x104
       + 106156 x105 + 95581 x106 + 99498 x107 + 99468 x108 + 98497 x109
       + 96247 x110 + 101048 x111 + 101802 x112 + 106232 x113 + 99229 x114
       + 103497 x115 + 101469 x116 + 97852 x117 + 91840 x118 + 101814 x119
       + 100328 x120 + 102568 x121 + 94982 x122 + 95158 x123 + 104647 x124
       + 104332 x125 + 105854 x126 + 93847 x127 + 109998 x128 + 92977 x129
       + 91855 x130 + 106337 x131 + 94653 x132 + 90763 x133 + 95838 x134
       + 108350 x135 + 109686 x136 + 99215 x137 + 94057 x138 + 103164 x139
       + 107854 x140 + 103338 x141 + 99836 x142 + 104642 x143 + 107927 x144
       + 108125 x145 + 108375 x146 + 92665 x147 + 106283 x148 + 105730 x149
       + 91095 x150 + 91534 x151 + 94583 x152 + 109301 x153 + 95901 x154
       + 109034 x155 + 101712 x156 + 109041 x157 + 100210 x158 + 101356 x159
       + 100308 x160 + 107045 x161 + 108804 x162 + 92798 x163 + 92403 x164
       + 107345 x165 + 93695 x166 + 100550 x167 + 105906 x168 + 105745 x169
       + 103195 x170 + 108735 x171 + 93745 x172 + 109464 x173 + 109893 x174
       + 106951 x175 + 91171 x176 + 99985 x177 + 95752 x178 + 108117 x179
       + 107339 x180 + 95654 x181 + 96936 x182 + 109052 x183 + 101683 x184
       + 91983 x185 + 90692 x186 + 96430 x187 + 105627 x188 + 99662 x189
       + 91930 x190 + 90642 x191 + 95790 x192 + 102980 x193 + 98115 x194
       + 100569 x195 + 106151 x196 + 104626 x197 + 97665 x198 + 93387 x199
       + 103501 x200 + 103055 x201 + 103070 x202 + 107214 x203 + 91182 x204
       + 109219 x205 + 100665 x206 + 101829 x207 + 95067 x208 + 90292 x209
       + 98570 x210 + 102123 x211 + 95097 x212 + 95277 x213 + 93363 x214
       + 93779 x215 + 103209 x216 + 95981 x217 + 91665 x218 + 94905 x219
       + 92749 x220 + 108238 x221 + 95805 x222 + 108437 x223 + 93692 x224
       + 92374 x225 + 97606 x226 + 91531 x227 + 90927 x228 + 94887 x229
       + 104090 x230 + 99493 x231 + 107912 x232 + 90881 x233 + 108497 x234
       + 94630 x235 + 95296 x236 + 99900 x237 + 90133 x238 + 108870 x239
       + 92151 x240 + 96607 x241 + 97428 x242 + 93086 x243 + 106020 x244
       + 102120 x245 + 99943 x246 + 95728 x247 + 107275 x248 + 101859 x249
       + 107172 x250 + 104627 x251 + 99814 x252 + 106951 x253 + 103063 x254
       + 91010 x255 + 96025 x256 + 100330 x257 + 92960 x258 + 94195 x259
       + 97346 x260 + 95722 x261 + 90568 x262 + 98290 x263 + 94788 x264
       + 91549 x265 + 91252 x266 + 109251 x267 + 92646 x268 + 103268 x269
       + 105762 x270 + 102268 x271 + 102779 x272 + 98231 x273 + 90200 x274
       + 90641 x275 + 93715 x276 + 96169 x277 + 104972 x278 + 92833 x279
       + 97730 x280 + 92047 x281 + 91854 x282 + 92143 x283 + 104958 x284
       + 93520 x285 + 94597 x286 + 101678 x287 + 105193 x288 + 91327 x289
       + 100377 x290 + 106268 x291 + 95266 x292 + 97701 x293 + 106924 x294
       + 92505 x295 + 92678 x296 + 95236 x297 + 103302 x298 + 98261 x299
       + 104651 x300 + 95837 x301 + 104472 x302 + 107043 x303 + 108371 x304
       + 97634 x305 + 98955 x306 + 98582 x307 + 97033 x308 + 107371 x309
       + 92336 x310 + 108591 x311 + 107476 x312 + 96611 x313 + 108102 x314
       + 107919 x315 + 107012 x316 + 104383 x317 + 94987 x318 + 90357 x319
       + 96129 x320 + 93365 x321 + 107199 x322 + 97645 x323 + 98408 x324
       + 94872 x325 + 94719 x326 + 90120 x327 + 102123 x328 + 101964 x329
       + 90510 x330 + 102416 x331 + 94569 x332 + 109069 x333 + 95084 x334
       + 103012 x335 + 96628 x336 + 101216 x337 + 103122 x338 + 91426 x339
       + 92096 x340 + 106322 x341 + 91687 x342 + 97530 x343 + 94004 x344
       + 99908 x345 + 95081 x346 + 93708 x347 + 98444 x348 + 93235 x349
       + 107490 x350 + 101316 x351 + 99742 x352 + 95184 x353 + 93760 x354
       + 106443 x355 + 106870 x356 + 100842 x357 + 102120 x358 + 103687 x359
       + 93822 x360 + 104502 x361 + 96943 x362 + 104277 x363 + 99608 x364
       + 101067 x365 + 98139 x366 + 96475 x367 + 96644 x368 + 101496 x369
       + 93036 x370 + 100279 x371 + 101089 x372 + 102193 x373 + 109744 x374
       + 101660 x375 + 102562 x376 + 99881 x377 + 93668 x378 + 98893 x379
       + 103498 x380 + 105301 x381 + 105488 x382 + 105287 x383 + 100965 x384
       + 103647 x385 + 96789 x386 + 94954 x387 + 101861 x388 + 104804 x389
       + 102962 x390 + 91286 x391 + 96229 x392 + 102274 x393 + 102075 x394
       + 101399 x395 + 102770 x396 + 96087 x397 + 103141 x398 + 94032 x399
       + 105703 x400 + 102732 x401 + 107431 x402 + 93131 x403 + 96009 x404
       + 100165 x405 + 91172 x406 + 102867 x407 + 106904 x408 + 103112 x409
       + 106305 x410 + 95516 x411 + 101884 x412 + 96228 x413 + 100942 x414
       + 100702 x415 + 97920 x416 + 93599 x417 + 95105 x418 + 107513 x419
       + 105329 x420 + 95123 x421 + 91061 x422 + 90718 x423 + 107208 x424
       + 101175 x425 + 96412 x426 + 98135 x427 + 109915 x428 + 107323 x429
       + 91184 x430 + 108052 x431 + 108366 x432 + 106517 x433 + 92855 x434
       + 96568 x435 + 90410 x436 + 107470 x437 + 96562 x438 + 91275 x439
       + 95646 x440 + 94797 x441 + 91647 x442 + 109961 x443 + 105804 x444
       + 109041 x445 + 100256 x446 + 90777 x447 + 96151 x448 + 92833 x449
       + 108883 x450 + 109538 x451 + 93250 x452 + 95137 x453 + 109543 x454
       + 93674 x455 + 103320 x456 + 94246 x457 + 91404 x458 + 109023 x459
       + 92970 x460 + 98236 x461 + 101649 x462 + 97189 x463 + 98397 x464
       + 109399 x465 + 105871 x466 + 98144 x467 + 105577 x468 + 99432 x469
       + 91592 x470 + 96693 x471 + 101395 x472 + 103069 x473 + 97925 x474
       + 95525 x475 + 105063 x476 + 108619 x477 + 109611 x478 + 109654 x479
       + 109899 x480 + 104257 x481 + 98128 x482 + 107836 x483 + 109661 x484
       + 97569 x485 + 96933 x486 + 97994 x487 + 93299 x488 + 95045 x489
       + 97952 x490 + 105714 x491 + 107354 x492 + 108136 x493 + 92031 x494
       + 107572 x495 + 106175 x496 + 102913 x497 + 107379 x498 + 94325 x499
       + 187639 x500 + 37633 x501 + 43776 x502 + 36097 x503 + 43704 x504
       + 41890 x505 + 39988 x506 + 41710 x507 + 40769 x508 + 38221 x509
       + 36667 x510 + 39743 x511 + 36750 x512 + 42476 x513 + 38911 x514
       + 38299 x515 + 41323 x516 + 38001 x517 + 41137 x518 + 41898 x519
       + 43473 x520 + 40807 x521 + 37556 x522 + 42102 x523 + 40334 x524
       + 38346 x525 + 37362 x526 + 40423 x527 + 39604 x528 + 36144 x529
       + 40118 x530 + 38428 x531 + 38666 x532 + 38047 x533 + 42771 x534
       + 38771 x535 + 37761 x536 + 37987 x537 + 40294 x538 + 42472 x539
       + 41599 x540 + 38152 x541 + 39376 x542 + 42037 x543 + 39539 x544
       + 42112 x545 + 40718 x546 + 41147 x547 + 40989 x548 + 37923 x549
       + 45949 x550
Subject To
 c1:   x2 - x3 + x9 - x13 + x14 + x24 + x27 - x31 - x33 - x36 - x38 + x45 - x47
        = 0
 c2:   x52 - x53 + x59 - x63 + x64 + x74 + x77 - x81 - x83 - x86 - x88 + x95
       - x97  = 0
 c3:   x102 - x103 + x109 - x113 + x114 + x124 + x127 - x131 - x133 - x136
       - x138 + x145 - x147  = 0
 c4:   x152 - x153 + x159 - x163 + x164 + x174 + x177 - x181 - x183 - x186
       - x188 + x195 - x197  = 0
 c5:   x202 - x203 + x209 - x213 + x214 + x224 + x227 - x231 - x233 - x236
       - x238 + x245 - x247  = 0
 c6:   x252 - x253 + x259 - x263 + x264 + x274 + x277 - x281 - x283 - x286
       - x288 + x295 - x297  = -1
 c7:   x302 - x303 + x309 - x313 + x314 + x324 + x327 - x331 - x333 - x336
       - x338 + x345 - x347  = 1
 c8:   x352 - x353 + x359 - x363 + x364 + x374 + x377 - x381 - x383 - x386
       - x388 + x395 - x397  = 0
 c9:   x402 - x403 + x409 - x413 + x414 + x424 + x427 - x431 - x433 - x436
       - x438 + x445 - x447  = 0
 c10:  x452 - x453 + x459 - x463 + x464 + x474 + x477 - x481 - x483 - x486
       - x488 + x495 - x497  = 0
 c11:  - x1 + x3 - x10 - x16 - x22 - x30 + x37 + x41 - x46  = 0
 c12:  - x51 + x53 - x60 - x66 - x72 - x80 + x87 + x91 - x96  = 0
 c13:  - x101 + x103 - x110 - x116 - x122 - x130 + x137 + x141 - x146  = 0
 c14:  - x151 + x153 - x160 - x166 - x172 - x180 + x187 + x191 - x196  = 0
 c15:  - x201 + x203 - x210 - x216 - x222 - x230 + x237 + x241 - x246  = 0
 c16:  - x251 + x253 - x260 - x266 - x272 - x280 + x287 + x291 - x296  = 1
 c17:  - x301 + x303 - x310 - x316 - x322 - x330 + x337 + x341 - x346  = -1
 c18:  - x351 + x353 - x360 - x366 - x372 - x380 + x387 + x391 - x396  = 0
 c19:  - x401 + x403 - x410 - x416 - x422 - x430 + x437 + x441 - x446  = 0
 c20:  - x451 + x453 - x460 - x466 - x472 - x480 + x487 + x491 - x496  = -1
 c21:  x4 + x5 - x11 + x12 + x15 + x19 - x20 - x41 + x43 + x47 - x48  = 0
 c22:  x54 + x55 - x61 + x62 + x65 + x69 - x70 - x91 + x93 + x97 - x98  = 0
 c23:  x104 + x105 - x111 + x112 + x115 + x119 - x120 - x141 + x143 + x147
       - x148  = 0
 c24:  x154 + x155 - x161 + x162 + x165 + x169 - x170 - x191 + x193 + x197
       - x198  = 0
 c25:  x204 + x205 - x211 + x212 + x215 + x219 - x220 - x241 + x243 + x247
       - x248  = 0
 c26:  x254 + x255 - x261 + x262 + x265 + x269 - x270 - x291 + x293 + x297
       - x298  = 0
 c27:  x304 + x305 - x311 + x312 + x315 + x319 - x320 - x341 + x343 + x347
       - x348  = 0
 c28:  x354 + x355 - x361 + x362 + x365 + x369 - x370 - x391 + x393 + x397
       - x398  = 0
 c29:  x404 + x405 - x411 + x412 + x415 + x419 - x420 - x441 + x443 + x447
       - x448  = 0
 c30:  x454 + x455 - x461 + x462 + x465 + x469 - x470 - x491 + x493 + x497
       - x498  = 0
 c31:  - x2 - x5 + x6 + x10 - x17 + x21 + x25 + x32 - x34 + x38 - x39 - x42
        = 0
 c32:  - x52 - x55 + x56 + x60 - x67 + x71 + x75 + x82 - x84 + x88 - x89 - x92
        = -1
 c33:  - x102 - x105 + x106 + x110 - x117 + x121 + x125 + x132 - x134 + x138
       - x139 - x142  = 0
 c34:  - x152 - x155 + x156 + x160 - x167 + x171 + x175 + x182 - x184 + x188
       - x189 - x192  = 0
 c35:  - x202 - x205 + x206 + x210 - x217 + x221 + x225 + x232 - x234 + x238
       - x239 - x242  = 0
 c36:  - x252 - x255 + x256 + x260 - x267 + x271 + x275 + x282 - x284 + x288
       - x289 - x292  = 0
 c37:  - x302 - x305 + x306 + x310 - x317 + x321 + x325 + x332 - x334 + x338
       - x339 - x342  = 0
 c38:  - x352 - x355 + x356 + x360 - x367 + x371 + x375 + x382 - x384 + x388
       - x389 - x392  = 0
 c39:  - x402 - x405 + x406 + x410 - x417 + x421 + x425 + x432 - x434 + x438
       - x439 - x442  = 0
 c40:  - x452 - x455 + x456 + x460 - x467 + x471 + x475 + x482 - x484 + x488
       - x489 - x492  = 0
 c41:  - x6 - x7 - x9 - x12 + x13 + x20 + x22 + x29 - x35 + x39 - x49  = 0
 c42:  - x56 - x57 - x59 - x62 + x63 + x70 + x72 + x79 - x85 + x89 - x99  = 0
 c43:  - x106 - x107 - x109 - x112 + x113 + x120 + x122 + x129 - x135 + x139
       - x149  = 0
 c44:  - x156 - x157 - x159 - x162 + x163 + x170 + x172 + x179 - x185 + x189
       - x199  = 0
 c45:  - x206 - x207 - x209 - x212 + x213 + x220 + x222 + x229 - x235 + x239
       - x249  = 1
 c46:  - x256 - x257 - x259 - x262 + x263 + x270 + x272 + x279 - x285 + x289
       - x299  = 0
 c47:  - x306 - x307 - x309 - x312 + x313 + x320 + x322 + x329 - x335 + x339
       - x349  = 0
 c48:  - x356 - x357 - x359 - x362 + x363 + x370 + x372 + x379 - x385 + x389
       - x399  = 0
 c49:  - x406 - x407 - x409 - x412 + x413 + x420 + x422 + x429 - x435 + x439
       - x449  = 0
 c50:  - x456 - x457 - x459 - x462 + x463 + x470 + x472 + x479 - x485 + x489
       - x499  = 0
 c51:  - x4 - x18 + x23 - x24 + x31 - x32 - x37 + x42 - x44 + x46  = 1
 c52:  - x54 - x68 + x73 - x74 + x81 - x82 - x87 + x92 - x94 + x96  = 0
 c53:  - x104 - x118 + x123 - x124 + x131 - x132 - x137 + x142 - x144 + x146
        = 0
 c54:  - x154 - x168 + x173 - x174 + x181 - x182 - x187 + x192 - x194 + x196
        = -1
 c55:  - x204 - x218 + x223 - x224 + x231 - x232 - x237 + x242 - x244 + x246
        = 0
 c56:  - x254 - x268 + x273 - x274 + x281 - x282 - x287 + x292 - x294 + x296
        = 0
 c57:  - x304 - x318 + x323 - x324 + x331 - x332 - x337 + x342 - x344 + x346
        = 0
 c58:  - x354 - x368 + x373 - x374 + x381 - x382 - x387 + x392 - x394 + x396
        = 0
 c59:  - x404 - x418 + x423 - x424 + x431 - x432 - x437 + x442 - x444 + x446
        = 0
 c60:  - x454 - x468 + x473 - x474 + x481 - x482 - x487 + x492 - x494 + x496
        = 1
 c61:  x1 - x19 - x26 - x27 + x48 + x49  = -1
 c62:  x51 - x69 - x76 - x77 + x98 + x99  = 0
 c63:  x101 - x119 - x126 - x127 + x148 + x149  = 0
 c64:  x151 - x169 - x176 - x177 + x198 + x199  = 1
 c65:  x201 - x219 - x226 - x227 + x248 + x249  = 0
 c66:  x251 - x269 - x276 - x277 + x298 + x299  = 0
 c67:  x301 - x319 - x326 - x327 + x348 + x349  = 0
 c68:  x351 - x369 - x376 - x377 + x398 + x399  = -1
 c69:  x401 - x419 - x426 - x427 + x448 + x449  = -1
 c70:  x451 - x469 - x476 - x477 + x498 + x499  = 0
 c71:  x8 - x25 - x29 + x30 + x34 + x35 + x36 - x40 - x43 + x44 - x45 - x50
        = 0
 c72:  x58 - x75 - x79 + x80 + x84 + x85 + x86 - x90 - x93 + x94 - x95 - x100
        = 1
 c73:  x108 - x125 - x129 + x130 + x134 + x135 + x136 - x140 - x143 + x144
       - x145 - x150  = -1
 c74:  x158 - x175 - x179 + x180 + x184 + x185 + x186 - x190 - x193 + x194
       - x195 - x200  = 0
 c75:  x208 - x225 - x229 + x230 + x234 + x235 + x236 - x240 - x243 + x244
       - x245 - x250  = -1
 c76:  x258 - x275 - x279 + x280 + x284 + x285 + x286 - x290 - x293 + x294
       - x295 - x300  = 0
 c77:  x308 - x325 - x329 + x330 + x334 + x335 + x336 - x340 - x343 + x344
       - x345 - x350  = 0
 c78:  x358 - x375 - x379 + x380 + x384 + x385 + x386 - x390 - x393 + x394
       - x395 - x400  = 1
 c79:  x408 - x425 - x429 + x430 + x434 + x435 + x436 - x440 - x443 + x444
       - x445 - x450  = 0
 c80:  x458 - x475 - x479 + x480 + x484 + x485 + x486 - x490 - x493 + x494
       - x495 - x500  = 0
 c81:  x11 - x14 + x17 + x18 - x23 - x28 + x33 + x40  = 0
 c82:  x61 - x64 + x67 + x68 - x73 - x78 + x83 + x90  = 0
 c83:  x111 - x114 + x117 + x118 - x123 - x128 + x133 + x140  = 1
 c84:  x161 - x164 + x167 + x168 - x173 - x178 + x183 + x190  = 0
 c85:  x211 - x214 + x217 + x218 - x223 - x228 + x233 + x240  = 0
 c86:  x261 - x264 + x267 + x268 - x273 - x278 + x283 + x290  = 0
 c87:  x311 - x314 + x317 + x318 - x323 - x328 + x333 + x340  = 0
 c88:  x361 - x364 + x367 + x368 - x373 - x378 + x383 + x390  = 0
 c89:  x411 - x414 + x417 + x418 - x423 - x428 + x433 + x440  = 1
 c90:  x461 - x464 + x467 + x468 - x473 - x478 + x483 + x490  = 0
 c91:  x7 - x8 - x15 + x16 - x21 + x26 + x28 + x50  = 0
 c92:  x57 - x58 - x65 + x66 - x71 + x76 + x78 + x100  = 0
 c93:  x107 - x108 - x115 + x116 - x121 + x126 + x128 + x150  = 0
 c94:  x157 - x158 - x165 + x166 - x171 + x176 + x178 + x200  = 0
 c95:  x207 - x208 - x215 + x216 - x221 + x226 + x228 + x250  = 0
 c96:  x257 - x258 - x265 + x266 - x271 + x276 + x278 + x300  = 0
 c97:  x307 - x308 - x315 + x316 - x321 + x326 + x328 + x350  = 0
 c98:  x357 - x358 - x365 + x366 - x371 + x376 + x378 + x400  = 0
 c99:  x407 - x408 - x415 + x416 - x421 + x426 + x428 + x450  = 0
 c100: x457 - x458 - x465 + x466 - x471 + x476 + x478 + x500  = 0
 c101: 4 x1 + 4 x51 + 4 x101 + 4 x151 + 4 x201 + 4 x251 + 4 x301 + 4 x351
       + 4 x401 + 4 x451 - 19 x501 <= 0
 c102: 4 x2 + 4 x52 + 4 x102 + 4 x152 + 4 x202 + 4 x252 + 4 x302 + 4 x352
       + 4 x402 + 4 x452 - 20 x502 <= 0
 c103: 4 x3 + 4 x53 + 4 x103 + 4 x153 + 4 x203 + 4 x253 + 4 x303 + 4 x353
       + 4 x403 + 4 x453 - 21 x503 <= 0
 c104: 4 x4 + 4 x54 + 4 x104 + 4 x154 + 4 x204 + 4 x254 + 4 x304 + 4 x354
       + 4 x404 + 4 x454 - 20 x504 <= 0
 c105: 4 x5 + 4 x55 + 4 x105 + 4 x155 + 4 x205 + 4 x255 + 4 x305 + 4 x355
       + 4 x405 + 4 x455 - 18 x505 <= 0
 c106: 4 x6 + 4 x56 + 4 x106 + 4 x156 + 4 x206 + 4 x256 + 4 x306 + 4 x356
       + 4 x406 + 4 x456 - 21 x506 <= 0
 c107: 4 x7 + 4 x57 + 4 x107 + 4 x157 + 4 x207 + 4 x257 + 4 x307 + 4 x357
       + 4 x407 + 4 x457 - 19 x507 <= 0
 c108: 4 x8 + 4 x58 + 4 x108 + 4 x158 + 4 x208 + 4 x258 + 4 x308 + 4 x358
       + 4 x408 + 4 x458 - 22 x508 <= 0
 c109: 4 x9 + 4 x59 + 4 x109 + 4 x159 + 4 x209 + 4 x259 + 4 x309 + 4 x359
       + 4 x409 + 4 x459 - 21 x509 <= 0
 c110: 4 x10 + 4 x60 + 4 x110 + 4 x160 + 4 x210 + 4 x260 + 4 x310 + 4 x360
       + 4 x410 + 4 x460 - 19 x510 <= 0
 c111: 4 x11 + 4 x61 + 4 x111 + 4 x161 + 4 x211 + 4 x261 + 4 x311 + 4 x361
       + 4 x411 + 4 x461 - 18 x511 <= 0
 c112: 4 x12 + 4 x62 + 4 x112 + 4 x162 + 4 x212 + 4 x262 + 4 x312 + 4 x362
       + 4 x412 + 4 x462 - 21 x512 <= 0
 c113: 4 x13 + 4 x63 + 4 x113 + 4 x163 + 4 x213 + 4 x263 + 4 x313 + 4 x363
       + 4 x413 + 4 x463 - 19 x513 <= 0
 c114: 4 x14 + 4 x64 + 4 x114 + 4 x164 + 4 x214 + 4 x264 + 4 x314 + 4 x364
       + 4 x414 + 4 x464 - 22 x514 <= 0
 c115: 4 x15 + 4 x65 + 4 x115 + 4 x165 + 4 x215 + 4 x265 + 4 x315 + 4 x365
       + 4 x415 + 4 x465 - 21 x515 <= 0
 c116: 4 x16 + 4 x66 + 4 x116 + 4 x166 + 4 x216 + 4 x266 + 4 x316 + 4 x366
       + 4 x416 + 4 x466 - 19 x516 <= 0
 c117: 4 x17 + 4 x67 + 4 x117 + 4 x167 + 4 x217 + 4 x267 + 4 x317 + 4 x367
       + 4 x417 + 4 x467 - 21 x517 <= 0
 c118: 4 x18 + 4 x68 + 4 x118 + 4 x168 + 4 x218 + 4 x268 + 4 x318 + 4 x368
       + 4 x418 + 4 x468 - 18 x518 <= 0
 c119: 4 x19 + 4 x69 + 4 x119 + 4 x169 + 4 x219 + 4 x269 + 4 x319 + 4 x369
       + 4 x419 + 4 x469 - 21 x519 <= 0
 c120: 4 x20 + 4 x70 + 4 x120 + 4 x170 + 4 x220 + 4 x270 + 4 x320 + 4 x370
       + 4 x420 + 4 x470 - 21 x520 <= 0
 c121: 4 x21 + 4 x71 + 4 x121 + 4 x171 + 4 x221 + 4 x271 + 4 x321 + 4 x371
       + 4 x421 + 4 x471 - 18 x521 <= 0
 c122: 4 x22 + 4 x72 + 4 x122 + 4 x172 + 4 x222 + 4 x272 + 4 x322 + 4 x372
       + 4 x422 + 4 x472 - 21 x522 <= 0
 c123: 4 x23 + 4 x73 + 4 x123 + 4 x173 + 4 x223 + 4 x273 + 4 x323 + 4 x373
       + 4 x423 + 4 x473 - 19 x523 <= 0
 c124: 4 x24 + 4 x74 + 4 x124 + 4 x174 + 4 x224 + 4 x274 + 4 x324 + 4 x374
       + 4 x424 + 4 x474 - 18 x524 <= 0
 c125: 4 x25 + 4 x75 + 4 x125 + 4 x175 + 4 x225 + 4 x275 + 4 x325 + 4 x375
       + 4 x425 + 4 x475 - 20 x525 <= 0
 c126: 4 x26 + 4 x76 + 4 x126 + 4 x176 + 4 x226 + 4 x276 + 4 x326 + 4 x376
       + 4 x426 + 4 x476 - 21 x526 <= 0
 c127: 4 x27 + 4 x77 + 4 x127 + 4 x177 + 4 x227 + 4 x277 + 4 x327 + 4 x377
       + 4 x427 + 4 x477 - 21 x527 <= 0
 c128: 4 x28 + 4 x78 + 4 x128 + 4 x178 + 4 x228 + 4 x278 + 4 x328 + 4 x378
       + 4 x428 + 4 x478 - 20 x528 <= 0
 c129: 4 x29 + 4 x79 + 4 x129 + 4 x179 + 4 x229 + 4 x279 + 4 x329 + 4 x379
       + 4 x429 + 4 x479 - 21 x529 <= 0
 c130: 4 x30 + 4 x80 + 4 x130 + 4 x180 + 4 x230 + 4 x280 + 4 x330 + 4 x380
       + 4 x430 + 4 x480 - 21 x530 <= 0
 c131: 4 x31 + 4 x81 + 4 x131 + 4 x181 + 4 x231 + 4 x281 + 4 x331 + 4 x381
       + 4 x431 + 4 x481 - 19 x531 <= 0
 c132: 4 x32 + 4 x82 + 4 x132 + 4 x182 + 4 x232 + 4 x282 + 4 x332 + 4 x382
       + 4 x432 + 4 x482 - 22 x532 <= 0
 c133: 4 x33 + 4 x83 + 4 x133 + 4 x183 + 4 x233 + 4 x283 + 4 x333 + 4 x383
       + 4 x433 + 4 x483 - 20 x533 <= 0
 c134: 4 x34 + 4 x84 + 4 x134 + 4 x184 + 4 x234 + 4 x284 + 4 x334 + 4 x384
       + 4 x434 + 4 x484 - 22 x534 <= 0
 c135: 4 x35 + 4 x85 + 4 x135 + 4 x185 + 4 x235 + 4 x285 + 4 x335 + 4 x385
       + 4 x435 + 4 x485 - 20 x535 <= 0
 c136: 4 x36 + 4 x86 + 4 x136 + 4 x186 + 4 x236 + 4 x286 + 4 x336 + 4 x386
       + 4 x436 + 4 x486 - 21 x536 <= 0
 c137: 4 x37 + 4 x87 + 4 x137 + 4 x187 + 4 x237 + 4 x287 + 4 x337 + 4 x387
       + 4 x437 + 4 x487 - 19 x537 <= 0
 c138: 4 x38 + 4 x88 + 4 x138 + 4 x188 + 4 x238 + 4 x288 + 4 x338 + 4 x388
       + 4 x438 + 4 x488 - 20 x538 <= 0
 c139: 4 x39 + 4 x89 + 4 x139 + 4 x189 + 4 x239 + 4 x289 + 4 x339 + 4 x389
       + 4 x439 + 4 x489 - 20 x539 <= 0
 c140: 4 x40 + 4 x90 + 4 x140 + 4 x190 + 4 x240 + 4 x290 + 4 x340 + 4 x390
       + 4 x440 + 4 x490 - 19 x540 <= 0
 c141: 4 x41 + 4 x91 + 4 x141 + 4 x191 + 4 x241 + 4 x291 + 4 x341 + 4 x391
       + 4 x441 + 4 x491 - 19 x541 <= 0
 c142: 4 x42 + 4 x92 + 4 x142 + 4 x192 + 4 x242 + 4 x292 + 4 x342 + 4 x392
       + 4 x442 + 4 x492 - 21 x542 <= 0
 c143: 4 x43 + 4 x93 + 4 x143 + 4 x193 + 4 x243 + 4 x293 + 4 x343 + 4 x393
       + 4 x443 + 4 x493 - 20 x543 <= 0
 c144: 4 x44 + 4 x94 + 4 x144 + 4 x194 + 4 x244 + 4 x294 + 4 x344 + 4 x394
       + 4 x444 + 4 x494 - 19 x544 <= 0
 c145: 4 x45 + 4 x95 + 4 x145 + 4 x195 + 4 x245 + 4 x295 + 4 x345 + 4 x395
       + 4 x445 + 4 x495 - 21 x545 <= 0
 c146: 4 x46 + 4 x96 + 4 x146 + 4 x196 + 4 x246 + 4 x296 + 4 x346 + 4 x396
       + 4 x446 + 4 x496 - 22 x546 <= 0
 c147: 4 x47 + 4 x97 + 4 x147 + 4 x197 + 4 x247 + 4 x297 + 4 x347 + 4 x397
       + 4 x447 + 4 x497 - 21 x547 <= 0
 c148: 4 x48 + 4 x98 + 4 x148 + 4 x198 + 4 x248 + 4 x298 + 4 x348 + 4 x398
       + 4 x448 + 4 x498 - 20 x548 <= 0
 c149: 4 x49 + 4 x99 + 4 x149 + 4 x199 + 4 x249 + 4 x299 + 4 x349 + 4 x399
       + 4 x449 + 4 x499 - 18 x549 <= 0
 c150: 4 x50 + 4 x100 + 4 x150 + 4 x200 + 4 x250 + 4 x300 + 4 x350 + 4 x400
       + 4 x450 + 4 x500 - 16 x550 <= 0
Bounds
 0 <= x1 <= 1
 0 <= x2 <= 1
 0 <= x3 <= 1
 0 <= x4 <= 1
 0 <= x5 <= 1
 0 <= x6 <= 1
 0 <= x7 <= 1
 0 <= x8 <= 1
 0 <= x9 <= 1
 0 <= x10 <= 1
 0 <= x11 <= 1
 0 <= x12 <= 1
 0 <= x13 <= 1
 0 <= x14 <= 1
 0 <= x15 <= 1
 0 <= x16 <= 1
 0 <= x17 <= 1
 0 <= x18 <= 1
 0 <= x19 <= 1
 0 <= x20 <= 1
 0 <= x21 <= 1
 0 <= x22 <= 1
 0 <= x23 <= 1
 0 <= x24 <= 1
 0 <= x25 <= 1
 0 <= x26 <= 1
 0 <= x27 <= 1
 0 <= x28 <= 1
 0 <= x29 <= 1
 0 <= x30 <= 1
 0 <= x31 <= 1
 0 <= x32 <= 1
 0 <= x33 <= 1
 0 <= x34 <= 1
 0 <= x35 <= 1
 0 <= x36 <= 1
 0 <= x37 <= 1
 0 <= x38 <= 1
 0 <= x39 <= 1
 0 <= x40 <= 1
 0 <= x41 <= 1
 0 <= x42 <= 1
 0 <= x43 <= 1
 0 <= x44 <= 1
 0 <= x45 <= 1
 0 <= x46 <= 1
 0 <= x47 <= 1
 0 <= x48 <= 1
 0 <= x49 <= 1
 0 <= x50 <= 1
 0 <= x51 <= 1
 0 <= x52 <= 1
 0 <= x53 <= 1
 0 <= x54 <= 1
 0 <= x55 <= 1
 0 <= x56 <= 1
 0 <= x57 <= 1
 0 <= x58 <= 1
 0 <= x59 <= 1
 0 <= x60 <= 1
 0 <= x61 <= 1
 0 <= x62 <= 1
 0 <= x63 <= 1
 0 <= x64 <= 1
 0 <= x65 <= 1
 0 <= x66 <= 1
 0 <= x67 <= 1
 0 <= x68 <= 1
 0 <= x69 <= 1
 0 <= x70 <= 1
 0 <= x71 <= 1
 0 <= x72 <= 1
 0 <= x73 <= 1
 0 <= x74 <= 1
 0 <= x75 <= 1
 0 <= x76 <= 1
 0 <= x77 <= 1
 0 <= x78 <= 1
 0 <= x79 <= 1
 0 <= x80 <= 1
 0 <= x81 <= 1
 0 <= x82 <= 1
 0 <= x83 <= 1
 0 <= x84 <= 1
 0 <= x85 <= 1
 0 <= x86 <= 1
 0 <= x87 <= 1
 0 <= x88 <= 1
 0 <= x89 <= 1
 0 <= x90 <= 1
 0 <= x91 <= 1
 0 <= x92 <= 1
 0 <= x93 <= 1
 0 <= x94 <= 1
 0 <= x95 <= 1
 0 <= x96 <= 1
 0 <= x97 <= 1
 0 <= x98 <= 1
 0 <= x99 <= 1
 0 <= x100 <= 1
 0 <= x101 <= 1
 0 <= x102 <= 1
 0 <= x103 <= 1
 0 <= x104 <= 1
 0 <= x105 <= 1
 0 <= x106 <= 1
 0 <= x107 <= 1
 0 <= x108 <= 1
 0 <= x109 <= 1
 0 <= x110 <= 1
 0 <= x111 <= 1
 0 <= x112 <= 1
 0 <= x113 <= 1
 0 <= x114 <= 1
 0 <= x115 <= 1
 0 <= x116 <= 1
 0 <= x117 <= 1
 0 <= x118 <= 1
 0 <= x119 <= 1
 0 <= x120 <= 1
 0 <= x121 <= 1
 0 <= x122 <= 1
 0 <= x123 <= 1
 0 <= x124 <= 1
 0 <= x125 <= 1
 0 <= x126 <= 1
 0 <= x127 <= 1
 0 <= x128 <= 1
 0 <= x129 <= 1
 0 <= x130 <= 1
 0 <= x131 <= 1
 0 <= x132 <= 1
 0 <= x133 <= 1
 0 <= x134 <= 1
 0 <= x135 <= 1
 0 <= x136 <= 1
 0 <= x137 <= 1
 0 <= x138 <= 1
 0 <= x139 <= 1
 0 <= x140 <= 1
 0 <= x141 <= 1
 0 <= x142 <= 1
 0 <= x143 <= 1
 0 <= x144 <= 1
 0 <= x145 <= 1
 0 <= x146 <= 1
 0 <= x147 <= 1
 0 <= x148 <= 1
 0 <= x149 <= 1
 0 <= x150 <= 1
 0 <= x151 <= 1
 0 <= x152 <= 1
 0 <= x153 <= 1
 0 <= x154 <= 1
 0 <= x155 <= 1
 0 <= x156 <= 1
 0 <= x157 <= 1
 0 <= x158 <= 1
 0 <= x159 <= 1
 0 <= x160 <= 1
 0 <= x161 <= 1
 0 <= x162 <= 1
 0 <= x163 <= 1
 0 <= x164 <= 1
 0 <= x165 <= 1
 0 <= x166 <= 1
 0 <= x167 <= 1
 0 <= x168 <= 1
 0 <= x169 <= 1
 0 <= x170 <= 1
 0 <= x171 <= 1
 0 <= x172 <= 1
 0 <= x173 <= 1
 0 <= x174 <= 1
 0 <= x175 <= 1
 0 <= x176 <= 1
 0 <= x177 <= 1
 0 <= x178 <= 1
 0 <= x179 <= 1
 0 <= x180 <= 1
 0 <= x181 <= 1
 0 <= x182 <= 1
 0 <= x183 <= 1
 0 <= x184 <= 1
 0 <= x185 <= 1
 0 <= x186 <= 1
 0 <= x187 <= 1
 0 <= x188 <= 1
 0 <= x189 <= 1
 0 <= x190 <= 1
 0 <= x191 <= 1
 0 <= x192 <= 1
 0 <= x193 <= 1
 0 <= x194 <= 1
 0 <= x195 <= 1
 0 <= x196 <= 1
 0 <= x197 <= 1
 0 <= x198 <= 1
 0 <= x199 <= 1
 0 <= x200 <= 1
 0 <= x201 <= 1
 0 <= x202 <= 1
 0 <= x203 <= 1
 0 <= x204 <= 1
 0 <= x205 <= 1
 0 <= x206 <= 1
 0 <= x207 <= 1
 0 <= x208 <= 1
 0 <= x209 <= 1
 0 <= x210 <= 1
 0 <= x211 <= 1
 0 <= x212 <= 1
 0 <= x213 <= 1
 0 <= x214 <= 1
 0 <= x215 <= 1
 0 <= x216 <= 1
 0 <= x217 <= 1
 0 <= x218 <= 1
 0 <= x219 <= 1
 0 <= x220 <= 1
 0 <= x221 <= 1
 0 <= x222 <= 1
 0 <= x223 <= 1
 0 <= x224 <= 1
 0 <= x225 <= 1
 0 <= x226 <= 1
 0 <= x227 <= 1
 0 <= x228 <= 1
 0 <= x229 <= 1
 0 <= x230 <= 1
 0 <= x231 <= 1
 0 <= x232 <= 1
 0 <= x233 <= 1
 0 <= x234 <= 1
 0 <= x235 <= 1
 0 <= x236 <= 1
 0 <= x237 <= 1
 0 <= x238 <= 1
 0 <= x239 <= 1
 0 <= x240 <= 1
 0 <= x241 <= 1
 0 <= x242 <= 1
 0 <= x243 <= 1
 0 <= x244 <= 1
 0 <= x245 <= 1
 0 <= x246 <= 1
 0 <= x247 <= 1
 0 <= x248 <= 1
 0 <= x249 <= 1
 0 <= x250 <= 1
 0 <= x251 <= 1
 0 <= x252 <= 1
 0 <= x253 <= 1
 0 <= x254 <= 1
 0 <= x255 <= 1
 0 <= x256 <= 1
 0 <= x257 <= 1
 0 <= x258 <= 1
 0 <= x259 <= 1
 0 <= x260 <= 1
 0 <= x261 <= 1
 0 <= x262 <= 1
 0 <= x263 <= 1
 0 <= x264 <= 1
 0 <= x265 <= 1
 0 <= x266 <= 1
 0 <= x267 <= 1
 0 <= x268 <= 1
 0 <= x269 <= 1
 0 <= x270 <= 1
 0 <= x271 <= 1
 0 <= x272 <= 1
 0 <= x273 <= 1
 0 <= x274 <= 1
 0 <= x275 <= 1
 0 <= x276 <= 1
 0 <= x277 <= 1
 0 <= x278 <= 1
 0 <= x279 <= 1
 0 <= x280 <= 1
 0 <= x281 <= 1
 0 <= x282 <= 1
 0 <= x283 <= 1
 0 <= x284 <= 1
 0 <= x285 <= 1
 0 <= x286 <= 1
 0 <= x287 <= 1
 0 <= x288 <= 1
 0 <= x289 <= 1
 0 <= x290 <= 1
 0 <= x291 <= 1
 0 <= x292 <= 1
 0 <= x293 <= 1
 0 <= x294 <= 1
 0 <= x295 <= 1
 0 <= x296 <= 1
 0 <= x297 <= 1
 0 <= x298 <= 1
 0 <= x299 <= 1
 0 <= x300 <= 1
 0 <= x301 <= 1
 0 <= x302 <= 1
 0 <= x303 <= 1
 0 <= x304 <= 1
 0 <= x305 <= 1
 0 <= x306 <= 1
 0 <= x307 <= 1
 0 <= x308 <= 1
 0 <= x309 <= 1
 0 <= x310 <= 1
 0 <= x311 <= 1
 0 <= x312 <= 1
 0 <= x313 <= 1
 0 <= x314 <= 1
 0 <= x315 <= 1
 0 <= x316 <= 1
 0 <= x317 <= 1
 0 <= x318 <= 1
 0 <= x319 <= 1
 0 <= x320 <= 1
 0 <= x321 <= 1
 0 <= x322 <= 1
 0 <= x323 <= 1
 0 <= x324 <= 1
 0 <= x325 <= 1
 0 <= x326 <= 1
 0 <= x327 <= 1
 0 <= x328 <= 1
 0 <= x329 <= 1
 0 <= x330 <= 1
 0 <= x331 <= 1
 0 <= x332 <= 1
 0 <= x333 <= 1
 0 <= x334 <= 1
 0 <= x335 <= 1
 0 <= x336 <= 1
 0 <= x337 <= 1
 0 <= x338 <= 1
 0 <= x339 <= 1
 0 <= x340 <= 1
 0 <= x341 <= 1
 0 <= x342 <= 1
 0 <= x343 <= 1
 0 <= x344 <= 1
 0 <= x345 <= 1
 0 <= x346 <= 1
 0 <= x347 <= 1
 0 <= x348 <= 1
 0 <= x349 <= 1
 0 <= x350 <= 1
 0 <= x351 <= 1
 0 <= x352 <= 1
 0 <= x353 <= 1
 0 <= x354 <= 1
 0 <= x355 <= 1
 0 <= x356 <= 1
 0 <= x357 <= 1
 0 <= x358 <= 1
 0 <= x359 <= 1
 0 <= x360 <= 1
 0 <= x361 <= 1
 0 <= x362 <= 1
 0 <= x363 <= 1
 0 <= x364 <= 1
 0 <= x365 <= 1
 0 <= x366 <= 1
 0 <= x367 <= 1
 0 <= x368 <= 1
 0 <= x369 <= 1
 0 <= x370 <= 1
 0 <= x371 <= 1
 0 <= x372 <= 1
 0 <= x373 <= 1
 0 <= x374 <= 1
 0 <= x375 <= 1
 0 <= x376 <= 1
 0 <= x377 <= 1
 0 <= x378 <= 1
 0 <= x379 <= 1
 0 <= x380 <= 1
 0 <= x381 <= 1
 0 <= x382 <= 1
 0 <= x383 <= 1
 0 <= x384 <= 1
 0 <= x385 <= 1
 0 <= x386 <= 1
 0 <= x387 <= 1
 0 <= x388 <= 1
 0 <= x389 <= 1
 0 <= x390 <= 1
 0 <= x391 <= 1
 0 <= x392 <= 1
 0 <= x393 <= 1
 0 <= x394 <= 1
 0 <= x395 <= 1
 0 <= x396 <= 1
 0 <= x397 <= 1
 0 <= x398 <= 1
 0 <= x399 <= 1
 0 <= x400 <= 1
 0 <= x401 <= 1
 0 <= x402 <= 1
 0 <= x403 <= 1
 0 <= x404 <= 1
 0 <= x405 <= 1
 0 <= x406 <= 1
 0 <= x407 <= 1
 0 <= x408 <= 1
 0 <= x409 <= 1
 0 <= x410 <= 1
 0 <= x411 <= 1
 0 <= x412 <= 1
 0 <= x413 <= 1
 0 <= x414 <= 1
 0 <= x415 <= 1
 0 <= x416 <= 1
 0 <= x417 <= 1
 0 <= x418 <= 1
 0 <= x419 <= 1
 0 <= x420 <= 1
 0 <= x421 <= 1
 0 <= x422 <= 1
 0 <= x423 <= 1
 0 <= x424 <= 1
 0 <= x425 <= 1
 0 <= x426 <= 1
 0 <= x427 <= 1
 0 <= x428 <= 1
 0 <= x429 <= 1
 0 <= x430 <= 1
 0 <= x431 <= 1
 0 <= x432 <= 1
 0 <= x433 <= 1
 0 <= x434 <= 1
 0 <= x435 <= 1
 0 <= x436 <= 1
 0 <= x437 <= 1
 0 <= x438 <= 1
 0 <= x439 <= 1
 0 <= x440 <= 1
 0 <= x441 <= 1
 0 <= x442 <= 1
 0 <= x443 <= 1
 0 <= x444 <= 1
 0 <= x445 <= 1
 0 <= x446 <= 1
 0 <= x447 <= 1
 0 <= x448 <= 1
 0 <= x449 <= 1
 0 <= x450 <= 1
 0 <= x451 <= 1
 0 <= x452 <= 1
 0 <= x453 <= 1
 0 <= x454 <= 1
 0 <= x455 <= 1
 0 <= x456 <= 1
 0 <= x457 <= 1
 0 <= x458 <= 1
 0 <= x459 <= 1
 0 <= x460 <= 1
 0 <= x461 <= 1
 0 <= x462 <= 1
 0 <= x463 <= 1
 0 <= x464 <= 1
 0 <= x465 <= 1
 0 <= x466 <= 1
 0 <= x467 <= 1
 0 <= x468 <= 1
 0 <= x469 <= 1
 0 <= x470 <= 1
 0 <= x471 <= 1
 0 <= x472 <= 1
 0 <= x473 <= 1
 0 <= x474 <= 1
 0 <= x475 <= 1
 0 <= x476 <= 1
 0 <= x477 <= 1
 0 <= x478 <= 1
 0 <= x479 <= 1
 0 <= x480 <= 1
 0 <= x481 <= 1
 0 <= x482 <= 1
 0 <= x483 <= 1
 0 <= x484 <= 1
 0 <= x485 <= 1
 0 <= x486 <= 1
 0 <= x487 <= 1
 0 <= x488 <= 1
 0 <= x489 <= 1
 0 <= x490 <= 1
 0 <= x491 <= 1
 0 <= x492 <= 1
 0 <= x493 <= 1
 0 <= x494 <= 1
 0 <= x495 <= 1
 0 <= x496 <= 1
 0 <= x497 <= 1
 0 <= x498 <= 1
 0 <= x499 <= 1
 0 <= x500 <= 1
 0 <= x501 <= 1
 0 <= x502 <= 1
 0 <= x503 <= 1
 0 <= x504 <= 1
 0 <= x505 <= 1
 0 <= x506 <= 1
 0 <= x507 <= 1
 0 <= x508 <= 1
 0 <= x509 <= 1
 0 <= x510 <= 1
 0 <= x511 <= 1
 0 <= x512 <= 1
 0 <= x513 <= 1
 0 <= x514 <= 1
 0 <= x515 <= 1
 0 <= x516 <= 1
 0 <= x517 <= 1
 0 <= x518 <= 1
 0 <= x519 <= 1
 0 <= x520 <= 1
 0 <= x521 <= 1
 0 <= x522 <= 1
 0 <= x523 <= 1
 0 <= x524 <= 1
 0 <= x525 <= 1
 0 <= x526 <= 1
 0 <= x527 <= 1
 0 <= x528 <= 1
 0 <= x529 <= 1
 0 <= x530 <= 1
 0 <= x531 <= 1
 0 <= x532 <= 1
 0 <= x533 <= 1
 0 <= x534 <= 1
 0 <= x535 <= 1
 0 <= x536 <= 1
 0 <= x537 <= 1
 0 <= x538 <= 1
 0 <= x539 <= 1
 0 <= x540 <= 1
 0 <= x541 <= 1
 0 <= x542 <= 1
 0 <= x543 <= 1
 0 <= x544 <= 1
 0 <= x545 <= 1
 0 <= x546 <= 1
 0 <= x547 <= 1
 0 <= x548 <= 1
 0 <= x549 <= 1
 0 <= x550 <= 1
Binaries
 x501  x502  x503  x504  x505  x506  x507  x508  x509  x510  x511  x512  x513 
 x514  x515  x516  x517  x518  x519  x520  x521  x522  x523  x524  x525  x526 
 x527  x528  x529  x530  x531  x532  x533  x534  x535  x536  x537  x538  x539 
 x540  x541  x542  x543  x544  x545  x546  x547  x548  x549  x550 
End
